c FILE /home/rafael/Documents/HappySet/MIHS/inputs/happygen/output/graph_scale_free_k5_p0.5_v50_20241127_082449.txt
c SOURCE This is a scale-free graph formed for the happy graph colouring problem.
c DESCRIPTION It was generated using the problem generator of Rhyd Lewis
c
c GRAPH STATS
c Seed                             = -1249719052
c Number of Nodes                  = 50
c Number of colours k              = 5
c Number of pre-assignments        = 25
c Number of links per new node     = 5
c Density                          = 0.191837
c 
c The degrees of nodes 1 to 50, respectively, are as follows 
c [28, 24, 23, 23, 22, 20, 17, 14, 14, 12, 12, 11, 10, 9, 9, 8, 8, 8, 8, 8, 8, 8, 7, 7, 7, 7, 
c  7, 7, 7, 7, 7, 6, 6, 6, 6, 6, 6, 6, 6, 5, 5, 5, 5, 5, 5, 5, 5, 5, 5, 5] 
c  
p edge 50 235 5
e 1 2
e 1 3
e 1 4
e 1 5
e 1 6
e 1 8
e 1 9
e 1 10
e 1 12
e 1 13
e 1 14
e 1 16
e 1 18
e 1 21
e 1 23
e 1 25
e 1 28
e 1 29
e 1 31
e 1 33
e 1 36
e 1 38
e 1 40
e 1 41
e 1 43
e 1 47
e 1 48
e 1 49
e 2 3
e 2 4
e 2 5
e 2 6
e 2 7
e 2 8
e 2 9
e 2 11
e 2 12
e 2 16
e 2 21
e 2 24
e 2 26
e 2 30
e 2 32
e 2 33
e 2 34
e 2 36
e 2 38
e 2 39
e 2 41
e 2 44
e 2 46
e 3 5
e 3 6
e 3 7
e 3 8
e 3 9
e 3 10
e 3 12
e 3 15
e 3 18
e 3 20
e 3 21
e 3 22
e 3 23
e 3 26
e 3 27
e 3 28
e 3 33
e 3 35
e 3 39
e 3 40
e 3 46
e 4 5
e 4 6
e 4 7
e 4 9
e 4 11
e 4 13
e 4 14
e 4 16
e 4 17
e 4 22
e 4 25
e 4 27
e 4 29
e 4 31
e 4 32
e 4 36
e 4 40
e 4 42
e 4 43
e 4 47
e 4 50
e 5 6
e 5 7
e 5 8
e 5 10
e 5 11
e 5 12
e 5 13
e 5 14
e 5 17
e 5 19
e 5 25
e 5 30
e 5 31
e 5 32
e 5 33
e 5 35
e 5 40
e 5 45
e 6 8
e 6 14
e 6 15
e 6 19
e 6 23
e 6 24
e 6 27
e 6 32
e 6 37
e 6 38
e 6 41
e 6 43
e 6 44
e 6 48
e 6 50
e 7 8
e 7 12
e 7 14
e 7 16
e 7 18
e 7 19
e 7 26
e 7 30
e 7 34
e 7 39
e 7 41
e 7 43
e 7 45
e 8 9
e 8 12
e 8 25
e 8 26
e 8 29
e 8 30
e 8 47
e 8 49
e 9 10
e 9 11
e 9 13
e 9 17
e 9 32
e 9 37
e 9 42
e 9 43
e 9 48
e 10 12
e 10 17
e 10 23
e 10 24
e 10 25
e 10 28
e 10 37
e 10 38
e 11 12
e 11 15
e 11 18
e 11 20
e 11 21
e 11 24
e 11 33
e 11 47
e 12 16
e 12 24
e 12 27
e 13 23
e 13 27
e 13 30
e 13 35
e 13 41
e 13 45
e 14 18
e 14 26
e 14 34
e 14 35
e 15 18
e 15 20
e 15 32
e 15 37
e 15 42
e 15 45
e 16 17
e 16 19
e 16 20
e 17 22
e 17 23
e 17 40
e 18 28
e 18 34
e 19 26
e 19 37
e 19 39
e 19 46
e 20 22
e 20 28
e 20 35
e 20 38
e 21 27
e 21 36
e 21 46
e 21 50
e 22 27
e 22 44
e 22 47
e 22 49
e 23 44
e 24 31
e 24 34
e 25 29
e 25 49
e 26 28
e 28 48
e 29 33
e 29 42
e 29 50
e 30 31
e 30 45
e 31 39
e 31 49
e 34 46
e 35 36
e 36 48
e 37 42
e 38 44
e 39 50
n 11 2
n 12 2
n 16 2
n 23 4
n 25 1
n 26 4
n 30 5
n 32 4
n 33 2
n 34 5
n 35 2
n 36 2
n 37 2
n 38 4
n 39 4
n 40 1
n 41 3
n 42 2
n 43 5
n 44 4
n 45 5
n 46 5
n 47 2
n 49 1
n 50 4
